49920.48,55.38,67.16
43376.67,63.73,77.29
47808.54,57.83,70.13
41161.72,67.16,81.45
50096.63,55.19,66.92
47757.92,57.89,70.2
45636.61,60.58,73.46
42214.53,65.49,79.42
45179.15,61.19,74.21
53290.06,51.88,62.91
44012.46,62.81,76.17
44490.42,62.14,75.36
47674.45,57.99,70.32
45127.31,61.26,74.29
38117.06,72.53,87.95
45872.51,60.27,73.09
50107.99,55.17,66.91
47791.29,57.85,70.15
43875.05,63.01,76.41
43720.43,63.23,76.68
